ampl/minesweeper2.dat
# Problem from Gecode/examples/minesweeper.cc  problem 2

param r := 10;
param c := 10;
param game: 1 2 3 4 5 6 7 8 9 10 :=

   1   1 . . 2 . 2 . 2 . . 
   2   . 3 2 . . . 4 . . 1 
   3   . . . 1 3 . . . 4 . 
   4   3 . 1 . . . 3 . . . 
   5   . 2 1 . 1 . . 3 . 2 
   6   . 3 . 2 . . 2 . 1 . 
   7   2 . . 3 2 . . 2 . . 
   8   . 3 . . . 3 2 . . 3 
   9   . . 3 . 3 3 . . . . 
  10   . 2 . 2 . . . 2 2 .
;

